NAME : synthetic_screening_split_6
TYPE : CVRP
COMMENT : Scion controlled synthetic screening fixture
DIMENSION : 6
EDGE_WEIGHT_TYPE : EUC_2D
CAPACITY : 8
NODE_COORD_SECTION
1 0 0
2 0 1
3 0 2
4 0 3
5 0 7
6 2 1
DEMAND_SECTION
1 0
2 1
3 1
4 1
5 1
6 1
DEPOT_SECTION
1
-1
EOF
